c graph3
p edge 20 63
e 1 17
e 2 16
e 3 17
e 4 9
e 5 15
e 6 16
e 7 18
e 8 14
e 9 20
e 10 8
e 11 7
e 12 18
e 13 14
e 14 10
e 15 2
e 16 20
e 17 7
e 18 8
e 19 1
e 20 15
e 11 14
e 6 1
e 6 13
e 3 11
e 20 7
e 16 3
e 18 6
e 14 6
e 8 13
e 6 17
e 12 3
e 11 10
e 5 16
e 7 2
e 8 12
e 14 9
e 3 6
e 8 2
e 3 9
e 11 8
e 16 17
e 15 11
e 13 4
e 12 10
e 4 1
e 16 9
e 5 1
e 19 7
e 12 14
e 5 8
e 18 17
e 13 18
e 4 11
e 5 10
e 15 9
e 2 5
e 11 2
e 17 5
e 5 7
e 9 13
e 3 1
e 13 5
e 17 13
